(set-info :smt-lib-version 2.6)
(set-logic QF_S)
(set-info :source |
Generated by: Murphy Berzish, Mitja Kulczynski, Federico Mora, Florin Manea, Joel Day, Dirk Nowotka, Vijay Ganesh, Zhengyang Lu
Generated on: 2020-10-01
Description: Translated from a collection of real-world regex queries, AutomataArk, collected by Loris D’Antoni and Fang Wang: https://github.com/lorisdanto/automatark
Application: Evaluate solvers on real-world regex queries
Target solver: Z3str3RE, CVC4, OSTRICH, Z3seq, Z3str3, Z3-Trau
Publications: Berzish, M., Kulczynski, M., Mora, F., Manea, F., Day, J. D., Nowotka, D., & Ganesh, V. (2021, July). An SMT solver for regular expressions and linear arithmetic over string length. In CAV 2021.
|)
(set-info :license "https://creativecommons.org/licenses/by/4.0/")
(set-info :category "industrial")
(set-info :status unsat)

(declare-const X String)
(assert (str.in_re X (re.++ (str.to_re "/filename=") (re.* (re.comp (str.to_re "\u{a}"))) (str.to_re ".jpe/i\u{a}"))))
(assert (str.in_re X (re.++ ((_ re.loop 9 9) (re.union (re.range "A" "Z") (re.range "0" "9") (str.to_re "<"))) ((_ re.loop 1 1) (re.range "0" "9")) ((_ re.loop 3 3) (re.range "A" "Z")) ((_ re.loop 7 7) (re.range "0" "9")) ((_ re.loop 1 1) (re.range "A" "Z")) ((_ re.loop 7 7) (re.range "0" "9")) ((_ re.loop 14 14) (re.union (re.range "A" "Z") (re.range "0" "9") (str.to_re "<"))) ((_ re.loop 2 2) (re.range "0" "9")) (str.to_re "\u{a}"))))
(assert (str.in_re X (str.to_re "mywayHost:www.eblocs.com\u{1b}\u{a}")))
(assert (str.in_re X (re.++ (str.to_re "From:") (re.* re.allchar) (str.to_re "Host:") (re.+ (re.union (str.to_re " ") (str.to_re "\u{9}") (str.to_re "\u{a}") (str.to_re "\u{c}") (str.to_re "\u{d}"))) (str.to_re "Downloadfowclxccdxn/uxwn.ddy\u{a}"))))
(assert (str.in_re X (re.++ (re.union (re.++ (re.union (re.++ (re.range "A" "Z") (str.to_re ":\u{5c}")) ((_ re.loop 2 2) (re.++ (re.union (str.to_re "\u{5c}") (str.to_re "/") (str.to_re ":") (str.to_re "*") (str.to_re "?") (str.to_re "\u{22}") (str.to_re "<") (str.to_re ">") (str.to_re "|") (str.to_re ".") (str.to_re " ") (str.to_re "\u{9}") (str.to_re "\u{a}") (str.to_re "\u{c}") (str.to_re "\u{d}")) (re.+ (re.union (str.to_re "\u{5c}") (str.to_re "/") (str.to_re ":") (str.to_re "*") (str.to_re "?") (str.to_re "\u{22}") (str.to_re "<") (str.to_re ">") (str.to_re "|"))) (re.union (str.to_re "\u{5c}") (str.to_re "/") (str.to_re ":") (str.to_re "*") (str.to_re "?") (str.to_re "\u{22}") (str.to_re "<") (str.to_re ">") (str.to_re "|") (str.to_re ".") (str.to_re " ") (str.to_re "\u{9}") (str.to_re "\u{a}") (str.to_re "\u{c}") (str.to_re "\u{d}")) (str.to_re "\u{5c}")))) (str.to_re "\u{5c}\u{5c}") (re.opt (re.++ (str.to_re "?\u{5c}") (re.opt (str.to_re "UNC\u{5c}"))))) (re.++ (re.range "A" "Z") (str.to_re ":\u{5c}"))) (re.* (re.++ (re.union (str.to_re "\u{5c}") (str.to_re "/") (str.to_re ":") (str.to_re "*") (str.to_re "?") (str.to_re "\u{22}") (str.to_re "<") (str.to_re ">") (str.to_re "|") (str.to_re " ") (str.to_re "\u{9}") (str.to_re "\u{a}") (str.to_re "\u{c}") (str.to_re "\u{d}")) (re.+ (re.union (str.to_re "\u{5c}") (str.to_re "/") (str.to_re ":") (str.to_re "*") (str.to_re "?") (str.to_re "\u{22}") (str.to_re "<") (str.to_re ">") (str.to_re "|"))) (re.union (str.to_re "\u{5c}") (str.to_re "/") (str.to_re ":") (str.to_re "*") (str.to_re "?") (str.to_re "\u{22}") (str.to_re "<") (str.to_re ">") (str.to_re "|") (str.to_re " ") (str.to_re "\u{9}") (str.to_re "\u{a}") (str.to_re "\u{c}") (str.to_re "\u{d}")) (str.to_re "\u{5c}"))) (re.* (re.++ (str.to_re ".") (re.+ (re.union (str.to_re "\u{5c}") (str.to_re "/") (str.to_re ":") (str.to_re "*") (str.to_re "?") (str.to_re "\u{22}") (str.to_re "<") (str.to_re ">") (str.to_re "|") (str.to_re ".") (str.to_re " ") (str.to_re "\u{9}") (str.to_re "\u{a}") (str.to_re "\u{c}") (str.to_re "\u{d}"))))) (str.to_re "\u{a}") (re.union (str.to_re "\u{5c}") (str.to_re "/") (str.to_re ":") (str.to_re "*") (str.to_re "?") (str.to_re "\u{22}") (str.to_re "<") (str.to_re ">") (str.to_re "|") (str.to_re ".") (str.to_re " ") (str.to_re "\u{9}") (str.to_re "\u{a}") (str.to_re "\u{c}") (str.to_re "\u{d}")) (re.+ (re.union (str.to_re "\u{5c}") (str.to_re "/") (str.to_re ":") (str.to_re "*") (str.to_re "?") (str.to_re "\u{22}") (str.to_re "<") (str.to_re ">") (str.to_re "|") (str.to_re "."))) (re.union (str.to_re "\u{5c}") (str.to_re "/") (str.to_re ":") (str.to_re "*") (str.to_re "?") (str.to_re "\u{22}") (str.to_re "<") (str.to_re ">") (str.to_re "|") (str.to_re ".") (str.to_re " ") (str.to_re "\u{9}") (str.to_re "\u{a}") (str.to_re "\u{c}") (str.to_re "\u{d}")))))
(check-sat)

(exit)
